solution status: optimal solution found
objective value:                                    0
one.thingy.devices[3].thingy.v0_z                    8 	(obj:0)
one.ctrl_s[0].hole_y                                9 	(obj:0)
one.ctrl_s[0].hole_z                               19 	(obj:0)
one.thingy.devices[2].thingy.v12_y                    4 	(obj:0)
one.thingy.devices[2].thingy.v12_z                   12 	(obj:0)
$_23__3_y                                          10 	(obj:0)
$_23__3_z                                          16 	(obj:0)
one.ctrl_s[0].flush_z                              10 	(obj:0)
$_25__3_y                                           2 	(obj:0)
$_25__3_z                                          10 	(obj:0)
$_21__3_y                                           1 	(obj:0)
$_21__3_z                                          10 	(obj:0)
one.thingy.devices[1].thingy.v0_y                    6 	(obj:0)
one.thingy.devices[1].thingy.v0_z                   16 	(obj:0)
one.thingy.devices[1].thingy.v12_y                    6 	(obj:0)
one.thingy.devices[1].thingy.v12_z                   17 	(obj:0)
$_20__3_y                                           6 	(obj:0)
$_20__3_z                                          11 	(obj:0)
one.thingy.devices[0].thingy.v0_y                    8 	(obj:0)
one.thingy.devices[0].thingy.v0_z                   19 	(obj:0)
one.thingy.devices[3].thingy.v12_z                    9 	(obj:0)
$_22__3_y                                          10 	(obj:0)
$_22__3_z                                          25 	(obj:0)
$_19__3_y                                          10 	(obj:0)
$_19__3_z                                          14 	(obj:0)
$_24__3_y                                           6 	(obj:0)
$_24__3_z                                          14 	(obj:0)
$_18__3_y                                          13 	(obj:0)
$_18__3_z                                          13 	(obj:0)
one.thingy.devices[2].thingy.v0_y                    4 	(obj:0)
one.thingy.devices[2].thingy.v0_z                   13 	(obj:0)
one.thingy.devices[0].thingy.v12_y                    7 	(obj:0)
one.thingy.devices[0].thingy.v12_z                   19 	(obj:0)
